Max_Width = 6;
Max_Height = 12;

Width = 5;
Height = 11;

grid =[| 2, 2,-1,-1,-1
       |-2, 3,-1,-1,-1
       | 2,-1,-1,-1,-1
       | 1,-1, 2,-1,-1
       | 1, 1, 2,-1,-1
       | 1,-1, 2,-1,-1
       | 1,-1, 2,-1,-1
       | 1, 1, 2,-1,-1
       | 2,-1, 2,-1,-1
       |-2,-1,-1,-1,-1
       |-2,-2, 2, 1, 3|];
